(set-info :source |printed by MathSAT|)
(declare-fun |.x{13}| () (Array Int Int))
(declare-fun |.x{18}| () (Array Int Int))
(declare-fun |.x{14}| () Int)
(declare-fun |.y{8}| () Int)
(declare-fun |.x{15}| () Int)
(declare-fun |.y{9}| () Int)
(declare-fun |.x{16}| () Int)
(declare-fun |.y{10}| () Int)
(declare-fun |.y{4}| () (Array Int Int))
(declare-fun |.x{17}| () (Array Int Int))
(declare-fun |.y{5}| () Int)
(declare-fun |.x{19}| () Int)
(declare-fun |.y{6}| () Int)
(declare-fun |.x{20}| () Int)
(declare-fun |.y{7}| () Int)
(declare-fun |.x{21}| () Int)
(declare-fun |.loc{2}| () Bool)
(declare-fun |.loc{3}| () Bool)
(declare-fun |.x{37}| () Int)
(define-fun .def_12 () Int (! |.x{15}| :next |.y{9}|))
(define-fun .def_77 () Bool (= .def_12 0))
(define-fun .def_10 () Int (! |.x{14}| :next |.y{8}|))
(define-fun .def_76 () Bool (= .def_10 0))
(define-fun .def_78 () Bool (and .def_76 .def_77))
(define-fun .def_24 () Bool (! |.loc{2}| :next |.loc{3}|))
(define-fun .def_27 () Bool (not .def_24))
(define-fun .def_79 () Bool (! (and .def_27 .def_78) :init true))
(define-fun .def_8 () (Array Int Int) (! |.x{13}| :next |.x{18}|))
(define-fun .def_74 () Bool (= .def_8 |.x{18}|))
(define-fun .def_14 () Int (! |.x{16}| :next |.y{10}|))
(define-fun .def_68 () Bool (= .def_14 |.x{21}|))
(define-fun .def_65 () Bool (= .def_12 |.x{19}|))
(define-fun .def_64 () Bool (= |.x{20}| 0))
(define-fun .def_66 () Bool (and .def_64 .def_65))
(define-fun .def_67 () Bool (and .def_27 .def_66))
(define-fun .def_69 () Bool (and .def_67 .def_68))
(define-fun .def_37 () Bool (<= .def_14 .def_10))
(define-fun .def_70 () Bool (and .def_37 .def_69))
(define-fun .def_18 () Int (! |.y{5}| :next |.x{19}|))
(define-fun .def_22 () Int (! |.y{7}| :next |.x{21}|))
(define-fun .def_60 () Bool (<= .def_22 .def_18))
(define-fun .def_61 () Bool (not .def_60))
(define-fun .def_56 () Int (select .def_8 .def_18))
(define-fun .def_16 () (Array Int Int) (! |.y{4}| :next |.x{17}|))
(define-fun .def_57 () (Array Int Int) (store .def_16 .def_18 .def_56))
(define-fun .def_58 () Bool (= |.x{17}| .def_57))
(define-fun .def_20 () Int (! |.y{6}| :next |.x{20}|))
(define-fun .def_54 () Bool (= .def_20 |.x{20}|))
(define-fun .def_52 () Bool (= .def_22 |.x{21}|))
(define-fun .def_48 () Int (* (- 1) |.x{19}|))
(define-fun .def_49 () Int (+ .def_18 .def_48))
(define-fun .def_50 () Bool (= .def_49 (- 1)))
(define-fun .def_51 () Bool (and .def_24 .def_50))
(define-fun .def_53 () Bool (and .def_51 .def_52))
(define-fun .def_55 () Bool (and .def_53 .def_54))
(define-fun .def_59 () Bool (and .def_55 .def_58))
(define-fun .def_62 () Bool (and .def_59 .def_61))
(define-fun .def_71 () Bool (or .def_62 .def_70))
(define-fun .def_72 () Bool (and |.loc{3}| .def_71))
(define-fun .def_41 () Int (* (- 1) |.y{8}|))
(define-fun .def_42 () Int (+ .def_10 .def_41))
(define-fun .def_43 () Bool (= .def_42 (- 1)))
(define-fun .def_38 () Bool (not .def_37))
(define-fun .def_31 () Int (select .def_8 .def_10))
(define-fun .def_32 () Bool (<= .def_12 .def_31))
(define-fun .def_33 () Bool (not .def_32))
(define-fun .def_34 () Int (ite .def_33 .def_31 .def_12))
(define-fun .def_35 () Bool (= |.y{9}| .def_34))
(define-fun .def_29 () Bool (= .def_14 |.y{10}|))
(define-fun .def_26 () Bool (not |.loc{3}|))
(define-fun .def_28 () Bool (and .def_26 .def_27))
(define-fun .def_30 () Bool (and .def_28 .def_29))
(define-fun .def_36 () Bool (and .def_30 .def_35))
(define-fun .def_39 () Bool (and .def_36 .def_38))
(define-fun .def_44 () Bool (and .def_39 .def_43))
(define-fun .def_73 () Bool (or .def_44 .def_72))
(define-fun .def_75 () Bool (! (and .def_73 .def_74) :trans true))
(define-fun .def_80 () Int (! |.x{37}| :next |.xpv{1}|))
(define-fun .def_86 () Bool (<= .def_80 0))
(define-fun .def_87 () Bool (not .def_86))
(define-fun .def_88 () Bool (and .def_60 .def_87))
(define-fun .def_84 () Bool (<= .def_22 .def_80))
(define-fun .def_85 () Bool (not .def_84))
(define-fun .def_89 () Bool (and .def_85 .def_88))
(define-fun .def_81 () Int (select .def_16 .def_80))
(define-fun .def_82 () Bool (<= .def_20 .def_81))
(define-fun .def_83 () Bool (not .def_82))
(define-fun .def_90 () Bool (and .def_83 .def_89))
(define-fun .def_91 () Bool (and .def_24 .def_90))
(define-fun .def_93 () Bool (! (not .def_91) :invar-property 0))
(assert true)
